NAME : local_1
TYPE : ATSP
DIMENSION : 29
EDGE_WEIGHT_TYPE : EXPLICIT
EDGE_WEIGHT_FORMAT : FULL_MATRIX
EDGE_WEIGHT_SECTION
0 648 597 10000000 10000000 10000000 10000000 10000000 636 10000000 10000000 10000000 10000000 10000000 10000000 992 10000000 651 937 508 804 10000000 10000000 10000000 10000000 10000000 10000000 10000000 10000000 
0 0 150 10000000 10000000 10000000 10000000 10000000 10000000 10000000 10000000 10000000 917 10000000 10000000 10000000 708 10000000 10000000 632 10000000 10000000 10000000 10000000 10000000 10000000 834 10000000 10000000 
0 150 0 10000000 978 10000000 10000000 10000000 10000000 10000000 947 10000000 837 10000000 10000000 890 605 920 10000000 489 10000000 10000000 10000000 10000000 10000000 10000000 766 10000000 10000000 
0 10000000 10000000 0 10000000 10000000 267 10000000 10000000 10000000 10000000 974 10000000 10000000 824 10000000 10000000 10000000 995 10000000 648 137 524 827 205 685 10000000 489 10000000 
0 10000000 978 10000000 0 10000000 10000000 374 10000000 394 285 981 437 10000000 10000000 496 428 10000000 10000000 817 10000000 10000000 10000000 800 10000000 1012 521 10000000 10000000 
0 10000000 10000000 10000000 10000000 0 10000000 10000000 10000000 10000000 10000000 479 10000000 627 274 10000000 10000000 10000000 858 10000000 10000000 934 10000000 10000000 953 576 10000000 581 841 
0 10000000 10000000 267 10000000 10000000 0 10000000 10000000 10000000 10000000 10000000 10000000 10000000 10000000 10000000 10000000 10000000 10000000 10000000 601 355 708 10000000 467 946 10000000 696 10000000 
0 10000000 10000000 10000000 374 10000000 10000000 0 10000000 672 128 10000000 774 10000000 10000000 236 668 782 10000000 726 10000000 10000000 10000000 10000000 10000000 10000000 845 10000000 10000000 
0 10000000 10000000 10000000 10000000 10000000 10000000 10000000 0 10000000 10000000 10000000 10000000 570 10000000 10000000 10000000 548 333 802 496 952 10000000 10000000 10000000 10000000 10000000 868 742 
0 10000000 10000000 10000000 394 10000000 10000000 672 10000000 0 621 684 468 10000000 967 806 629 10000000 10000000 10000000 10000000 10000000 10000000 629 10000000 723 579 10000000 10000000 
0 10000000 947 10000000 285 10000000 10000000 128 10000000 621 0 10000000 659 10000000 10000000 225 541 781 10000000 655 10000000 10000000 10000000 992 10000000 1241 724 10000000 10000000 
0 10000000 10000000 974 1009 479 10000000 10000000 10000000 684 10000000 0 936 10000000 327 10000000 10000000 10000000 10000000 10000000 10000000 885 925 759 797 304 10000000 634 10000000 
0 917 837 10000000 437 10000000 10000000 774 10000000 468 659 936 0 10000000 10000000 802 267 10000000 10000000 888 10000000 10000000 797 441 992 849 111 10000000 10000000 
0 10000000 10000000 10000000 10000000 627 10000000 10000000 570 10000000 10000000 10000000 10000000 0 744 10000000 10000000 745 319 10000000 744 991 10000000 10000000 10000000 976 10000000 718 387 
0 10000000 10000000 824 10000000 274 10000000 10000000 10000000 935 10000000 327 10000000 744 0 10000000 10000000 10000000 887 10000000 964 706 957 900 696 322 10000000 378 10000000 
0 10000000 890 10000000 496 10000000 10000000 236 10000000 806 225 10000000 802 10000000 10000000 0 628 563 10000000 503 10000000 10000000 10000000 10000000 10000000 10000000 851 10000000 10000000 
0 708 605 10000000 428 10000000 10000000 668 10000000 629 541 10000000 267 10000000 10000000 628 0 974 10000000 632 10000000 10000000 875 611 1136 1014 253 10000000 10000000 
0 10000000 920 10000000 10000000 10000000 10000000 782 548 10000000 781 10000000 10000000 745 10000000 563 974 0 737 448 936 10000000 10000000 10000000 10000000 10000000 10000000 10000000 727 
0 10000000 10000000 995 10000000 858 10000000 10000000 333 10000000 10000000 10000000 10000000 319 887 10000000 10000000 737 0 10000000 476 881 10000000 10000000 10000000 10000000 10000000 713 616 
0 632 489 10000000 817 10000000 10000000 726 802 10000000 655 10000000 888 10000000 10000000 503 632 448 10000000 0 10000000 10000000 10000000 10000000 10000000 10000000 877 10000000 10000000 
0 10000000 10000000 648 10000000 10000000 601 10000000 496 10000000 10000000 10000000 10000000 744 964 10000000 10000000 936 476 10000000 0 578 10000000 10000000 770 10000000 10000000 628 10000000 
0 10000000 10000000 137 10000000 934 355 10000000 952 10000000 10000000 885 10000000 991 706 10000000 10000000 10000000 881 10000000 578 0 594 840 210 604 10000000 356 10000000 
0 10000000 10000000 524 10000000 10000000 708 10000000 10000000 10000000 10000000 925 797 10000000 957 10000000 875 10000000 10000000 10000000 10000000 594 0 418 396 667 769 791 10000000 
0 10000000 10000000 827 800 10000000 10000000 10000000 10000000 629 992 759 441 10000000 900 10000000 611 10000000 10000000 10000000 10000000 840 418 0 642 581 450 882 10000000 
0 10000000 10000000 205 10000000 953 467 10000000 10000000 10000000 10000000 797 1005 10000000 696 10000000 1049 10000000 10000000 10000000 770 210 396 642 0 503 998 427 10000000 
0 10000000 10000000 685 1013 576 946 10000000 10000000 723 1116 304 809 976 322 10000000 942 10000000 10000000 10000000 10000000 604 667 581 503 0 921 417 10000000 
0 834 766 10000000 521 10000000 10000000 845 10000000 579 724 10000000 111 10000000 10000000 851 253 10000000 10000000 877 10000000 10000000 769 450 977 899 0 10000000 10000000 
0 10000000 10000000 489 10000000 581 696 10000000 868 10000000 10000000 634 10000000 718 378 10000000 10000000 10000000 713 10000000 628 356 791 882 427 417 10000000 0 10000000 
0 10000000 10000000 10000000 10000000 10000000 10000000 10000000 10000000 10000000 10000000 10000000 10000000 10000000 10000000 10000000 10000000 10000000 10000000 10000000 10000000 10000000 10000000 10000000 10000000 10000000 10000000 10000000 0 
EOF